objective value:                     1.84699679697027
x(0,1,0)                                            1 	(obj:0)
x(1,17,0)                                           1 	(obj:0)
x(2,4,0)                                            1 	(obj:0)
x(3,2,0)                                            1 	(obj:0)
x(4,0,0)                                            1 	(obj:0)
x(7,3,0)                                            1 	(obj:0)
x(17,7,0)                                           1 	(obj:0)
xc(1,0)                                             1 	(obj:0)
xc(2,1)                                             1 	(obj:0)
xc(7,9)                                             1 	(obj:0)
u(0,0)                               1.25859322383395 	(obj:0)
u(1,0)                               1.53000845576425 	(obj:0)
u(2,0)                              0.989557510564177 	(obj:0)
u(3,0)                              0.555662306187108 	(obj:0)
u(4,0)                               1.22681176413146 	(obj:0)
u(6,0)                               1.84699679697027 	(obj:0)
u(8,0)                               1.84699679697027 	(obj:0)
u(10,0)                              1.84699679697027 	(obj:0)
u(11,0)                              1.84699679697027 	(obj:0)
u(12,0)                              1.84699679697027 	(obj:0)
u(13,0)                              1.84699679697027 	(obj:0)
u(14,0)                              1.84699679697027 	(obj:0)
u(15,0)                              1.84699679697027 	(obj:0)
u(16,0)                              1.84699679697027 	(obj:0)
u(17,0)                              1.84699679697027 	(obj:0)
u(18,0)                              1.84699679697027 	(obj:0)
u(19,0)                              1.84699679697027 	(obj:0)
f(0,1,0)                                            1 	(obj:0)
f(0,1,3)                                            1 	(obj:0)
f(0,1,4)                                            1 	(obj:0)
f(1,17,0)                                           1 	(obj:0)
f(1,17,1)                                           1 	(obj:0)
f(1,17,2)                                           1 	(obj:0)
f(1,17,3)                                           1 	(obj:0)
f(1,17,4)                                           1 	(obj:0)
f(2,1,2)                                            1 	(obj:0)
f(2,4,3)                                            1 	(obj:0)
f(3,2,3)                                            1 	(obj:0)
f(4,0,3)                                            1 	(obj:0)
f(4,0,4)                                            1 	(obj:0)
f(7,9,0)                                            1 	(obj:0)
f(7,9,1)                                            1 	(obj:0)
f(7,9,2)                                            1 	(obj:0)
f(7,9,3)                                            1 	(obj:0)
f(7,9,4)                                            1 	(obj:0)
f(17,7,0)                                           1 	(obj:0)
f(17,7,1)                                           1 	(obj:0)
f(17,7,2)                                           1 	(obj:0)
f(17,7,3)                                           1 	(obj:0)
f(17,7,4)                                           1 	(obj:0)
z_r(0,)                              1.84699679697027 	(obj:0)
z                                    1.84699679697027 	(obj:1)
